c # BDD stored by the DDDMP tool in CNF format
c #
c # Warning: BDD IDs missing ... evaluating them.
c # 
c # Warning: AUX IDs missing ... equal to BDD IDs.
c #
c # Warning: CNF IDs missing ... equal to BDD IDs.
c #
c .ver DDDMP-2.0
c .nnodes 371
c .nvars 20
c .nsuppvars 18
c .suppvarnames K K' L L' M M' N N' O O' P P' Q Q' R R' S S'
c .orderedvarnames K K' L L' M M' N N' O O' P P' Q Q' R R' S S' _jx_b0 strat_type
c .ids  0 1 2 3 4 5 6 7 8 9 10 11 12 13 14 15 16 17
c .permids  0 1 2 3 4 5 6 7 8 9 10 11 12 13 14 15 16 17
c .auxids  0 1 2 3 4 5 6 7 8 9 10 11 12 13 14 15 16 17
c .cnfids  1 2 3 4 5 6 7 8 9 10 11 12 13 14 15 16 17 18
c .nroots 1
c .rootids 1         
c .nAddedCnfVar 0
c #
c # Init CNF Clauses
c #
p cnf 18 1025              
1 2 3 5 7 8 9 10 11 12 14 0
1 2 3 5 7 8 9 10 11 12 15 17 0
1 2 3 5 7 8 9 10 11 12 -15 16 17 0
1 2 3 5 7 8 9 10 11 12 -15 16 18 0
1 2 3 5 7 8 9 10 11 12 -15 -16 17 0
1 2 3 5 7 8 9 10 11 12 -13 0
1 2 3 5 7 8 9 10 11 -12 13 0
1 2 3 5 7 8 9 10 11 -12 18 0
1 2 3 5 7 8 9 10 11 -12 -16 0
1 2 3 5 7 8 9 10 11 -12 -14 0
1 2 3 5 7 8 9 10 -11 12 14 0
1 2 3 5 7 8 9 10 -11 12 16 17 -18 0
1 2 3 5 7 8 9 10 -11 12 -16 17 0
1 2 3 5 7 8 9 10 -11 12 -15 0
1 2 3 5 7 8 9 10 -11 12 -13 0
1 2 3 5 7 8 9 10 -11 -12 13 14 15 16 17 0
1 2 3 5 7 8 9 10 -11 -12 13 14 15 16 18 0
1 2 3 5 7 8 9 10 -11 -12 13 14 15 -16 17 0
1 2 3 5 7 8 9 10 -11 -12 13 14 -15 18 0
1 2 3 5 7 8 9 10 -11 -12 13 14 -15 -16 0
1 2 3 5 7 8 9 10 -11 -12 13 -14 16 17 -18 0
1 2 3 5 7 8 9 10 -11 -12 13 -14 -16 17 0
1 2 3 5 7 8 9 10 -11 -12 13 -14 -15 0
1 2 3 5 7 8 9 10 -11 -12 -13 18 0
1 2 3 5 7 8 9 10 -11 -12 -13 -16 0
1 2 3 5 7 8 9 10 -11 -12 -13 -14 0
1 2 3 5 7 8 9 -10 11 0
1 2 3 5 7 8 9 -10 14 16 17 0
1 2 3 5 7 8 9 -10 14 16 18 0
1 2 3 5 7 8 9 -10 14 -16 17 0
1 2 3 5 7 8 9 -10 14 -15 0
1 2 3 5 7 8 9 -10 -14 16 17 -18 0
1 2 3 5 7 8 9 -10 -14 -16 17 0
1 2 3 5 7 8 9 -10 -14 -15 0
1 2 3 5 7 8 9 -10 -13 0
1 2 3 5 7 8 -9 10 11 12 0
1 2 3 5 7 8 -9 10 11 13 15 17 -18 0
1 2 3 5 7 8 -9 10 11 13 15 -17 18 0
1 2 3 5 7 8 -9 10 11 13 15 -16 0
1 2 3 5 7 8 -9 10 11 13 -15 18 0
1 2 3 5 7 8 -9 10 11 13 -15 -16 0
1 2 3 5 7 8 -9 10 11 13 -14 0
1 2 3 5 7 8 -9 10 11 -13 18 0
1 2 3 5 7 8 -9 10 11 -13 -16 0
1 2 3 5 7 8 -9 10 11 -13 -14 0
1 2 3 5 7 8 -9 10 -11 12 0
1 2 3 5 7 8 -9 10 -11 13 14 15 17 0
1 2 3 5 7 8 -9 10 -11 13 14 15 18 0
1 2 3 5 7 8 -9 10 -11 13 14 15 -16 0
1 2 3 5 7 8 -9 10 -11 13 14 -15 18 0
1 2 3 5 7 8 -9 10 -11 13 14 -15 -16 0
1 2 3 5 7 8 -9 10 -11 13 -14 -18 0
1 2 3 5 7 8 -9 10 -11 13 -14 -17 0
1 2 3 5 7 8 -9 10 -11 13 -14 -16 0
1 2 3 5 7 8 -9 10 -11 13 -14 -15 0
1 2 3 5 7 8 -9 10 -11 -13 18 0
1 2 3 5 7 8 -9 10 -11 -13 -16 0
1 2 3 5 7 8 -9 10 -11 -13 -14 0
1 2 3 5 7 8 -9 -10 11 12 0
1 2 3 5 7 8 -9 -10 11 -18 0
1 2 3 5 7 8 -9 -10 11 -17 0
1 2 3 5 7 8 -9 -10 11 -16 0
1 2 3 5 7 8 -9 -10 11 -15 0
1 2 3 5 7 8 -9 -10 11 -14 0
1 2 3 5 7 8 -9 -10 11 -13 0
1 2 3 5 7 8 -9 -10 -11 14 0
1 2 3 5 7 8 -9 -10 -11 -18 0
1 2 3 5 7 8 -9 -10 -11 -17 0
1 2 3 5 7 8 -9 -10 -11 -16 0
1 2 3 5 7 8 -9 -10 -11 -15 0
1 2 3 5 7 8 -9 -10 -11 -13 0
1 2 3 5 7 -8 9 10 11 14 15 0
1 2 3 5 7 -8 9 10 11 14 18 0
1 2 3 5 7 -8 9 10 11 14 -16 0
1 2 3 5 7 -8 9 10 11 -14 15 0
1 2 3 5 7 -8 9 10 11 -14 17 0
1 2 3 5 7 -8 9 10 11 -14 -16 0
1 2 3 5 7 -8 9 10 11 -13 0
1 2 3 5 7 -8 9 10 11 -12 0
1 2 3 5 7 -8 9 10 -11 14 17 0
1 2 3 5 7 -8 9 10 -11 14 18 0
1 2 3 5 7 -8 9 10 -11 14 -16 0
1 2 3 5 7 -8 9 10 -11 14 -15 0
1 2 3 5 7 -8 9 10 -11 -14 17 -18 0
1 2 3 5 7 -8 9 10 -11 -14 -16 0
1 2 3 5 7 -8 9 10 -11 -14 -15 0
1 2 3 5 7 -8 9 10 -11 -13 0
1 2 3 5 7 -8 9 -10 11 0
1 2 3 5 7 -8 9 -10 14 17 0
1 2 3 5 7 -8 9 -10 14 18 0
1 2 3 5 7 -8 9 -10 14 -16 0
1 2 3 5 7 -8 9 -10 14 -15 0
1 2 3 5 7 -8 9 -10 -14 17 -18 0
1 2 3 5 7 -8 9 -10 -14 -16 0
1 2 3 5 7 -8 9 -10 -14 -15 0
1 2 3 5 7 -8 9 -10 -13 0
1 2 3 5 7 -8 -9 11 -18 0
1 2 3 5 7 -8 -9 11 -17 0
1 2 3 5 7 -8 -9 11 -16 0
1 2 3 5 7 -8 -9 11 -15 0
1 2 3 5 7 -8 -9 11 -14 0
1 2 3 5 7 -8 -9 11 -13 0
1 2 3 5 7 -8 -9 -11 14 0
1 2 3 5 7 -8 -9 -11 -18 0
1 2 3 5 7 -8 -9 -11 -17 0
1 2 3 5 7 -8 -9 -11 -16 0
1 2 3 5 7 -8 -9 -11 -15 0
1 2 3 5 7 -8 -9 -11 -13 0
1 2 3 5 -7 8 9 10 11 12 0
1 2 3 5 -7 8 9 10 11 13 16 17 0
1 2 3 5 -7 8 9 10 11 13 16 18 0
1 2 3 5 -7 8 9 10 11 13 -16 -18 0
1 2 3 5 -7 8 9 10 11 13 -16 -17 0
1 2 3 5 -7 8 9 10 11 13 -15 0
1 2 3 5 -7 8 9 10 11 13 -14 0
1 2 3 5 -7 8 9 10 11 -13 18 0
1 2 3 5 -7 8 9 10 11 -13 -16 0
1 2 3 5 -7 8 9 10 11 -13 -15 0
1 2 3 5 -7 8 9 10 11 -13 -14 0
1 2 3 5 -7 8 9 10 -11 12 14 0
1 2 3 5 -7 8 9 10 -11 12 16 0
1 2 3 5 -7 8 9 10 -11 12 -18 0
1 2 3 5 -7 8 9 10 -11 12 -17 0
1 2 3 5 -7 8 9 10 -11 12 -15 0
1 2 3 5 -7 8 9 10 -11 12 -13 0
1 2 3 5 -7 8 9 10 -11 -12 13 14 16 17 0
1 2 3 5 -7 8 9 10 -11 -12 13 14 16 18 0
1 2 3 5 -7 8 9 10 -11 -12 13 14 -16 -18 0
1 2 3 5 -7 8 9 10 -11 -12 13 14 -16 -17 0
1 2 3 5 -7 8 9 10 -11 -12 13 14 -15 0
1 2 3 5 -7 8 9 10 -11 -12 13 -14 -18 0
1 2 3 5 -7 8 9 10 -11 -12 13 -14 -17 0
1 2 3 5 -7 8 9 10 -11 -12 13 -14 -15 0
1 2 3 5 -7 8 9 10 -11 -12 -13 18 0
1 2 3 5 -7 8 9 10 -11 -12 -13 -16 0
1 2 3 5 -7 8 9 10 -11 -12 -13 -15 0
1 2 3 5 -7 8 9 10 -11 -12 -13 -14 0
1 2 3 5 -7 8 9 -10 11 16 0
1 2 3 5 -7 8 9 -10 11 -18 0
1 2 3 5 -7 8 9 -10 11 -17 0
1 2 3 5 -7 8 9 -10 11 -15 0
1 2 3 5 -7 8 9 -10 11 -14 0
1 2 3 5 -7 8 9 -10 11 -13 0
1 2 3 5 -7 8 9 -10 -11 14 16 0
1 2 3 5 -7 8 9 -10 -11 14 -18 0
1 2 3 5 -7 8 9 -10 -11 14 -17 0
1 2 3 5 -7 8 9 -10 -11 14 -15 0
1 2 3 5 -7 8 9 -10 -11 -14 -18 0
1 2 3 5 -7 8 9 -10 -11 -14 -17 0
1 2 3 5 -7 8 9 -10 -11 -14 -15 0
1 2 3 5 -7 8 9 -10 -11 -13 0
1 2 3 5 -7 8 -9 10 11 12 0
1 2 3 5 -7 8 -9 10 11 13 16 17 0
1 2 3 5 -7 8 -9 10 11 13 16 18 0
1 2 3 5 -7 8 -9 10 11 13 -16 -18 0
1 2 3 5 -7 8 -9 10 11 13 -16 -17 0
1 2 3 5 -7 8 -9 10 11 13 -15 0
1 2 3 5 -7 8 -9 10 11 13 -14 0
1 2 3 5 -7 8 -9 10 11 -13 18 0
1 2 3 5 -7 8 -9 10 11 -13 -16 0
1 2 3 5 -7 8 -9 10 11 -13 -15 0
1 2 3 5 -7 8 -9 10 11 -13 -14 0
1 2 3 5 -7 8 -9 10 -11 12 0
1 2 3 5 -7 8 -9 10 -11 13 14 16 17 0
1 2 3 5 -7 8 -9 10 -11 13 14 16 18 0
1 2 3 5 -7 8 -9 10 -11 13 14 -16 -18 0
1 2 3 5 -7 8 -9 10 -11 13 14 -16 -17 0
1 2 3 5 -7 8 -9 10 -11 13 14 -15 0
1 2 3 5 -7 8 -9 10 -11 13 -14 -18 0
1 2 3 5 -7 8 -9 10 -11 13 -14 -17 0
1 2 3 5 -7 8 -9 10 -11 13 -14 -15 0
1 2 3 5 -7 8 -9 10 -11 -13 18 0
1 2 3 5 -7 8 -9 10 -11 -13 -16 0
1 2 3 5 -7 8 -9 10 -11 -13 -15 0
1 2 3 5 -7 8 -9 10 -11 -13 -14 0
1 2 3 5 -7 8 -9 -10 11 16 0
1 2 3 5 -7 8 -9 -10 11 -18 0
1 2 3 5 -7 8 -9 -10 11 -17 0
1 2 3 5 -7 8 -9 -10 11 -15 0
1 2 3 5 -7 8 -9 -10 11 -14 0
1 2 3 5 -7 8 -9 -10 11 -13 0
1 2 3 5 -7 8 -9 -10 -11 14 16 0
1 2 3 5 -7 8 -9 -10 -11 14 -18 0
1 2 3 5 -7 8 -9 -10 -11 14 -17 0
1 2 3 5 -7 8 -9 -10 -11 14 -15 0
1 2 3 5 -7 8 -9 -10 -11 -14 -18 0
1 2 3 5 -7 8 -9 -10 -11 -14 -17 0
1 2 3 5 -7 8 -9 -10 -11 -14 -15 0
1 2 3 5 -7 8 -9 -10 -11 -13 0
1 2 3 5 -7 -8 11 0
1 2 3 5 -7 -8 14 0
1 2 3 5 -7 -8 -18 0
1 2 3 5 -7 -8 -17 0
1 2 3 5 -7 -8 -16 0
1 2 3 5 -7 -8 -15 0
1 2 3 5 -7 -8 -13 0
1 2 3 5 -6 0
1 2 3 -5 6 7 9 10 11 12 13 14 15 16 0
1 2 3 -5 6 7 9 10 11 12 13 14 15 -18 0
1 2 3 -5 6 7 9 10 11 12 13 14 15 -17 0
1 2 3 -5 6 7 9 10 11 12 13 14 -15 16 0
1 2 3 -5 6 7 9 10 11 12 13 14 -15 -17 0
1 2 3 -5 6 7 9 10 11 12 13 -14 16 0
1 2 3 -5 6 7 9 10 11 12 13 -14 17 0
1 2 3 -5 6 7 9 10 11 12 -13 14 0
1 2 3 -5 6 7 9 10 11 12 -13 16 0
1 2 3 -5 6 7 9 10 11 -12 13 0
1 2 3 -5 6 7 9 10 11 -12 16 0
1 2 3 -5 6 7 9 10 -11 12 13 14 0
1 2 3 -5 6 7 9 10 -11 12 13 15 16 0
1 2 3 -5 6 7 9 10 -11 12 13 15 17 -18 0
1 2 3 -5 6 7 9 10 -11 12 13 -15 16 0
1 2 3 -5 6 7 9 10 -11 12 -13 14 0
1 2 3 -5 6 7 9 10 -11 12 -13 16 0
1 2 3 -5 6 7 9 10 -11 -12 13 15 16 0
1 2 3 -5 6 7 9 10 -11 -12 13 15 17 -18 0
1 2 3 -5 6 7 9 10 -11 -12 13 -15 16 0
1 2 3 -5 6 7 9 10 -11 -12 -13 16 0
1 2 3 -5 6 7 9 -10 11 0
1 2 3 -5 6 7 9 -10 12 13 15 16 0
1 2 3 -5 6 7 9 -10 12 13 15 17 -18 0
1 2 3 -5 6 7 9 -10 12 13 -15 16 0
1 2 3 -5 6 7 9 -10 12 -13 14 16 0
1 2 3 -5 6 7 9 -10 12 -13 14 18 0
1 2 3 -5 6 7 9 -10 12 -13 -14 16 0
1 2 3 -5 6 7 9 -10 -12 13 15 16 0
1 2 3 -5 6 7 9 -10 -12 13 15 17 -18 0
1 2 3 -5 6 7 9 -10 -12 13 -15 16 0
1 2 3 -5 6 7 9 -10 -12 -13 16 0
1 2 3 -5 6 7 -9 10 11 12 0
1 2 3 -5 6 7 -9 10 11 13 14 15 16 0
1 2 3 -5 6 7 -9 10 11 13 14 15 17 -18 0
1 2 3 -5 6 7 -9 10 11 13 14 -15 16 0
1 2 3 -5 6 7 -9 10 11 13 -14 16 0
1 2 3 -5 6 7 -9 10 11 13 -14 17 0
1 2 3 -5 6 7 -9 10 11 -13 16 0
1 2 3 -5 6 7 -9 10 -11 12 0
1 2 3 -5 6 7 -9 10 -11 13 15 16 0
1 2 3 -5 6 7 -9 10 -11 13 15 17 -18 0
1 2 3 -5 6 7 -9 10 -11 13 -15 16 0
1 2 3 -5 6 7 -9 10 -11 -13 16 0
1 2 3 -5 6 7 -9 -10 11 12 13 14 15 16 0
1 2 3 -5 6 7 -9 -10 11 12 13 14 15 17 -18 0
1 2 3 -5 6 7 -9 -10 11 12 13 14 -15 16 0
1 2 3 -5 6 7 -9 -10 11 12 13 -14 16 0
1 2 3 -5 6 7 -9 -10 11 12 13 -14 17 0
1 2 3 -5 6 7 -9 -10 11 12 -13 14 16 0
1 2 3 -5 6 7 -9 -10 11 12 -13 14 18 0
1 2 3 -5 6 7 -9 -10 11 12 -13 -14 16 0
1 2 3 -5 6 7 -9 -10 11 -12 13 14 15 16 0
1 2 3 -5 6 7 -9 -10 11 -12 13 14 15 17 -18 0
1 2 3 -5 6 7 -9 -10 11 -12 13 14 -15 16 0
1 2 3 -5 6 7 -9 -10 11 -12 13 -14 16 0
1 2 3 -5 6 7 -9 -10 11 -12 13 -14 17 0
1 2 3 -5 6 7 -9 -10 11 -12 -13 16 0
1 2 3 -5 6 7 -9 -10 -11 12 13 15 16 0
1 2 3 -5 6 7 -9 -10 -11 12 13 15 17 -18 0
1 2 3 -5 6 7 -9 -10 -11 12 13 -15 16 0
1 2 3 -5 6 7 -9 -10 -11 12 -13 14 16 0
1 2 3 -5 6 7 -9 -10 -11 12 -13 14 18 0
1 2 3 -5 6 7 -9 -10 -11 12 -13 -14 16 0
1 2 3 -5 6 7 -9 -10 -11 -12 13 15 16 0
1 2 3 -5 6 7 -9 -10 -11 -12 13 15 17 -18 0
1 2 3 -5 6 7 -9 -10 -11 -12 13 -15 16 0
1 2 3 -5 6 7 -9 -10 -11 -12 -13 16 0
1 2 3 -5 6 7 -8 0
1 2 3 -5 6 -7 9 10 11 12 13 14 0
1 2 3 -5 6 -7 9 10 11 12 13 16 0
1 2 3 -5 6 -7 9 10 11 12 13 17 0
1 2 3 -5 6 -7 9 10 11 12 13 -15 0
1 2 3 -5 6 -7 9 10 11 12 -13 14 0
1 2 3 -5 6 -7 9 10 11 12 -13 16 0
1 2 3 -5 6 -7 9 10 11 12 -13 -15 0
1 2 3 -5 6 -7 9 10 11 -12 13 14 16 0
1 2 3 -5 6 -7 9 10 11 -12 13 14 17 -18 0
1 2 3 -5 6 -7 9 10 11 -12 13 14 -15 0
1 2 3 -5 6 -7 9 10 11 -12 13 -14 16 0
1 2 3 -5 6 -7 9 10 11 -12 13 -14 17 0
1 2 3 -5 6 -7 9 10 11 -12 13 -14 -15 0
1 2 3 -5 6 -7 9 10 11 -12 -13 16 0
1 2 3 -5 6 -7 9 10 11 -12 -13 -15 0
1 2 3 -5 6 -7 9 10 -11 12 13 14 0
1 2 3 -5 6 -7 9 10 -11 12 13 16 0
1 2 3 -5 6 -7 9 10 -11 12 13 17 -18 0
1 2 3 -5 6 -7 9 10 -11 12 13 -15 0
1 2 3 -5 6 -7 9 10 -11 12 -13 14 0
1 2 3 -5 6 -7 9 10 -11 12 -13 16 0
1 2 3 -5 6 -7 9 10 -11 12 -13 -15 0
1 2 3 -5 6 -7 9 10 -11 -12 13 16 0
1 2 3 -5 6 -7 9 10 -11 -12 13 17 -18 0
1 2 3 -5 6 -7 9 10 -11 -12 13 -15 0
1 2 3 -5 6 -7 9 10 -11 -12 -13 16 0
1 2 3 -5 6 -7 9 10 -11 -12 -13 -15 0
1 2 3 -5 6 -7 9 -10 11 12 13 14 16 0
1 2 3 -5 6 -7 9 -10 11 12 13 14 17 -18 0
1 2 3 -5 6 -7 9 -10 11 12 13 14 -15 0
1 2 3 -5 6 -7 9 -10 11 12 13 -14 16 0
1 2 3 -5 6 -7 9 -10 11 12 13 -14 17 0
1 2 3 -5 6 -7 9 -10 11 12 13 -14 -15 0
1 2 3 -5 6 -7 9 -10 11 12 -13 14 16 0
1 2 3 -5 6 -7 9 -10 11 12 -13 14 18 0
1 2 3 -5 6 -7 9 -10 11 12 -13 14 -15 0
1 2 3 -5 6 -7 9 -10 11 12 -13 -14 16 0
1 2 3 -5 6 -7 9 -10 11 12 -13 -14 -15 0
1 2 3 -5 6 -7 9 -10 11 -12 13 14 16 0
1 2 3 -5 6 -7 9 -10 11 -12 13 14 17 -18 0
1 2 3 -5 6 -7 9 -10 11 -12 13 14 -15 0
1 2 3 -5 6 -7 9 -10 11 -12 13 -14 16 0
1 2 3 -5 6 -7 9 -10 11 -12 13 -14 17 0
1 2 3 -5 6 -7 9 -10 11 -12 13 -14 -15 0
1 2 3 -5 6 -7 9 -10 11 -12 -13 16 0
1 2 3 -5 6 -7 9 -10 11 -12 -13 -15 0
1 2 3 -5 6 -7 9 -10 -11 12 13 16 0
1 2 3 -5 6 -7 9 -10 -11 12 13 17 -18 0
1 2 3 -5 6 -7 9 -10 -11 12 13 -15 0
1 2 3 -5 6 -7 9 -10 -11 12 -13 14 16 0
1 2 3 -5 6 -7 9 -10 -11 12 -13 14 18 0
1 2 3 -5 6 -7 9 -10 -11 12 -13 14 -15 0
1 2 3 -5 6 -7 9 -10 -11 12 -13 -14 16 0
1 2 3 -5 6 -7 9 -10 -11 12 -13 -14 -15 0
1 2 3 -5 6 -7 9 -10 -11 -12 13 16 0
1 2 3 -5 6 -7 9 -10 -11 -12 13 17 -18 0
1 2 3 -5 6 -7 9 -10 -11 -12 13 -15 0
1 2 3 -5 6 -7 9 -10 -11 -12 -13 16 0
1 2 3 -5 6 -7 9 -10 -11 -12 -13 -15 0
1 2 3 -5 6 -7 -9 10 11 12 0
1 2 3 -5 6 -7 -9 10 11 13 14 16 0
1 2 3 -5 6 -7 -9 10 11 13 14 17 -18 0
1 2 3 -5 6 -7 -9 10 11 13 14 -15 0
1 2 3 -5 6 -7 -9 10 11 13 -14 16 0
1 2 3 -5 6 -7 -9 10 11 13 -14 17 0
1 2 3 -5 6 -7 -9 10 11 13 -14 -15 0
1 2 3 -5 6 -7 -9 10 11 -13 16 0
1 2 3 -5 6 -7 -9 10 11 -13 -15 0
1 2 3 -5 6 -7 -9 10 -11 12 0
1 2 3 -5 6 -7 -9 10 -11 13 16 0
1 2 3 -5 6 -7 -9 10 -11 13 17 -18 0
1 2 3 -5 6 -7 -9 10 -11 13 -15 0
1 2 3 -5 6 -7 -9 10 -11 -13 16 0
1 2 3 -5 6 -7 -9 10 -11 -13 -15 0
1 2 3 -5 6 -7 -9 -10 11 12 13 14 16 0
1 2 3 -5 6 -7 -9 -10 11 12 13 14 17 -18 0
1 2 3 -5 6 -7 -9 -10 11 12 13 14 -15 0
1 2 3 -5 6 -7 -9 -10 11 12 13 -14 16 0
1 2 3 -5 6 -7 -9 -10 11 12 13 -14 17 0
1 2 3 -5 6 -7 -9 -10 11 12 13 -14 -15 0
1 2 3 -5 6 -7 -9 -10 11 12 -13 14 16 0
1 2 3 -5 6 -7 -9 -10 11 12 -13 14 18 0
1 2 3 -5 6 -7 -9 -10 11 12 -13 14 -15 0
1 2 3 -5 6 -7 -9 -10 11 12 -13 -14 16 0
1 2 3 -5 6 -7 -9 -10 11 12 -13 -14 -15 0
1 2 3 -5 6 -7 -9 -10 11 -12 13 14 16 0
1 2 3 -5 6 -7 -9 -10 11 -12 13 14 17 -18 0
1 2 3 -5 6 -7 -9 -10 11 -12 13 14 -15 0
1 2 3 -5 6 -7 -9 -10 11 -12 13 -14 16 0
1 2 3 -5 6 -7 -9 -10 11 -12 13 -14 17 0
1 2 3 -5 6 -7 -9 -10 11 -12 13 -14 -15 0
1 2 3 -5 6 -7 -9 -10 11 -12 -13 16 0
1 2 3 -5 6 -7 -9 -10 11 -12 -13 -15 0
1 2 3 -5 6 -7 -9 -10 -11 12 13 16 0
1 2 3 -5 6 -7 -9 -10 -11 12 13 17 -18 0
1 2 3 -5 6 -7 -9 -10 -11 12 13 -15 0
1 2 3 -5 6 -7 -9 -10 -11 12 -13 14 16 0
1 2 3 -5 6 -7 -9 -10 -11 12 -13 14 18 0
1 2 3 -5 6 -7 -9 -10 -11 12 -13 14 -15 0
1 2 3 -5 6 -7 -9 -10 -11 12 -13 -14 16 0
1 2 3 -5 6 -7 -9 -10 -11 12 -13 -14 -15 0
1 2 3 -5 6 -7 -9 -10 -11 -12 13 16 0
1 2 3 -5 6 -7 -9 -10 -11 -12 13 17 -18 0
1 2 3 -5 6 -7 -9 -10 -11 -12 13 -15 0
1 2 3 -5 6 -7 -9 -10 -11 -12 -13 16 0
1 2 3 -5 6 -7 -9 -10 -11 -12 -13 -15 0
1 2 3 -5 6 -7 -8 0
1 2 3 -5 -6 8 15 0
1 2 3 -5 -6 8 18 0
1 2 3 -5 -6 8 -17 0
1 2 3 -5 -6 8 -14 0
1 2 3 -5 -6 8 -13 0
1 2 3 -5 -6 8 -12 0
1 2 3 -5 -6 8 -11 0
1 2 3 -5 -6 8 -10 0
1 2 3 -5 -6 8 -9 0
1 2 3 -5 -6 -8 15 0
1 2 3 -5 -6 -8 -17 0
1 2 3 -5 -6 -8 -16 0
1 2 3 -5 -6 -8 -14 0
1 2 3 -5 -6 -8 -13 0
1 2 3 -5 -6 -8 -12 0
1 2 3 -5 -6 -8 -11 0
1 2 3 -5 -6 -8 -10 0
1 2 3 -5 -6 -8 -9 0
1 2 3 -5 -6 -7 0
1 2 3 -4 0
1 2 -3 5 7 8 9 10 11 12 13 14 0
1 2 -3 5 7 8 9 10 11 12 13 15 16 17 -18 0
1 2 -3 5 7 8 9 10 11 12 13 15 -16 17 0
1 2 -3 5 7 8 9 10 11 12 13 -15 16 18 0
1 2 -3 5 7 8 9 10 11 12 -13 14 0
1 2 -3 5 7 8 9 10 11 12 -13 15 -16 17 0
1 2 -3 5 7 8 9 10 11 12 -13 -15 16 18 0
1 2 -3 5 7 8 9 10 11 -12 13 0
1 2 -3 5 7 8 9 10 11 -12 14 0
1 2 -3 5 7 8 9 10 11 -12 15 -16 17 0
1 2 -3 5 7 8 9 10 11 -12 -15 16 18 0
1 2 -3 5 7 8 9 10 -11 13 14 0
1 2 -3 5 7 8 9 10 -11 13 15 16 17 -18 0
1 2 -3 5 7 8 9 10 -11 13 15 -16 17 0
1 2 -3 5 7 8 9 10 -11 13 -15 16 18 0
1 2 -3 5 7 8 9 10 -11 -13 14 0
1 2 -3 5 7 8 9 10 -11 -13 15 -16 17 0
1 2 -3 5 7 8 9 10 -11 -13 -15 16 18 0
1 2 -3 5 7 8 9 -10 11 0
1 2 -3 5 7 8 9 -10 13 14 0
1 2 -3 5 7 8 9 -10 13 15 16 17 -18 0
1 2 -3 5 7 8 9 -10 13 15 -16 17 0
1 2 -3 5 7 8 9 -10 13 -15 16 18 0
1 2 -3 5 7 8 9 -10 -13 14 0
1 2 -3 5 7 8 9 -10 -13 15 -16 17 0
1 2 -3 5 7 8 9 -10 -13 -15 16 18 0
1 2 -3 5 7 8 -9 10 12 0
1 2 -3 5 7 8 -9 10 13 14 0
1 2 -3 5 7 8 -9 10 13 15 16 17 -18 0
1 2 -3 5 7 8 -9 10 13 15 -16 17 0
1 2 -3 5 7 8 -9 10 13 -15 16 18 0
1 2 -3 5 7 8 -9 10 -13 14 0
1 2 -3 5 7 8 -9 10 -13 15 -16 17 0
1 2 -3 5 7 8 -9 10 -13 -15 16 18 0
1 2 -3 5 7 8 -9 -10 13 14 0
1 2 -3 5 7 8 -9 -10 13 15 16 17 -18 0
1 2 -3 5 7 8 -9 -10 13 15 -16 17 0
1 2 -3 5 7 8 -9 -10 13 -15 16 18 0
1 2 -3 5 7 8 -9 -10 -13 14 0
1 2 -3 5 7 8 -9 -10 -13 15 -16 17 0
1 2 -3 5 7 8 -9 -10 -13 -15 16 18 0
1 2 -3 5 7 -8 9 10 11 12 14 0
1 2 -3 5 7 -8 9 10 11 12 15 0
1 2 -3 5 7 -8 9 10 11 12 -16 0
1 2 -3 5 7 -8 9 10 11 -12 13 0
1 2 -3 5 7 -8 9 10 11 -12 14 0
1 2 -3 5 7 -8 9 10 11 -12 15 0
1 2 -3 5 7 -8 9 10 11 -12 -16 0
1 2 -3 5 7 -8 9 10 -11 13 14 0
1 2 -3 5 7 -8 9 10 -11 13 15 17 -18 0
1 2 -3 5 7 -8 9 10 -11 13 15 -16 0
1 2 -3 5 7 -8 9 10 -11 13 -15 -16 0
1 2 -3 5 7 -8 9 10 -11 -13 14 0
1 2 -3 5 7 -8 9 10 -11 -13 -16 0
1 2 -3 5 7 -8 9 -10 11 0
1 2 -3 5 7 -8 9 -10 13 14 0
1 2 -3 5 7 -8 9 -10 13 15 17 -18 0
1 2 -3 5 7 -8 9 -10 13 15 -16 0
1 2 -3 5 7 -8 9 -10 13 -15 -16 0
1 2 -3 5 7 -8 9 -10 -13 14 0
1 2 -3 5 7 -8 9 -10 -13 -16 0
1 2 -3 5 7 -8 -9 13 14 0
1 2 -3 5 7 -8 -9 13 15 17 -18 0
1 2 -3 5 7 -8 -9 13 15 -16 0
1 2 -3 5 7 -8 -9 13 -15 -16 0
1 2 -3 5 7 -8 -9 -13 14 0
1 2 -3 5 7 -8 -9 -13 -16 0
1 2 -3 5 -7 8 9 10 12 13 14 0
1 2 -3 5 -7 8 9 10 12 13 16 0
1 2 -3 5 -7 8 9 10 12 13 17 -18 0
1 2 -3 5 -7 8 9 10 12 13 -15 0
1 2 -3 5 -7 8 9 10 12 -13 14 0
1 2 -3 5 -7 8 9 10 12 -13 16 0
1 2 -3 5 -7 8 9 10 12 -13 -15 0
1 2 -3 5 -7 8 9 10 -12 13 14 0
1 2 -3 5 -7 8 9 10 -12 13 17 -18 0
1 2 -3 5 -7 8 9 10 -12 13 -15 0
1 2 -3 5 -7 8 9 10 -12 -13 14 0
1 2 -3 5 -7 8 9 10 -12 -13 -15 0
1 2 -3 5 -7 8 9 -10 13 14 0
1 2 -3 5 -7 8 9 -10 13 17 -18 0
1 2 -3 5 -7 8 9 -10 13 -15 0
1 2 -3 5 -7 8 9 -10 -13 14 0
1 2 -3 5 -7 8 9 -10 -13 -15 0
1 2 -3 5 -7 8 -9 10 12 0
1 2 -3 5 -7 8 -9 10 13 14 0
1 2 -3 5 -7 8 -9 10 13 17 -18 0
1 2 -3 5 -7 8 -9 10 13 -15 0
1 2 -3 5 -7 8 -9 10 -13 14 0
1 2 -3 5 -7 8 -9 10 -13 -15 0
1 2 -3 5 -7 8 -9 -10 13 14 0
1 2 -3 5 -7 8 -9 -10 13 17 -18 0
1 2 -3 5 -7 8 -9 -10 13 -15 0
1 2 -3 5 -7 8 -9 -10 -13 14 0
1 2 -3 5 -7 8 -9 -10 -13 -15 0
1 2 -3 5 -7 -8 13 14 0
1 2 -3 5 -7 -8 13 17 -18 0
1 2 -3 5 -7 -8 13 -16 0
1 2 -3 5 -7 -8 13 -15 0
1 2 -3 5 -7 -8 -13 14 0
1 2 -3 5 -7 -8 -13 -16 0
1 2 -3 5 -7 -8 -13 -15 0
1 2 -3 5 -6 0
1 2 -3 -5 7 9 10 11 12 13 14 0
1 2 -3 -5 7 9 10 11 12 13 15 16 0
1 2 -3 -5 7 9 10 11 12 13 15 17 -18 0
1 2 -3 -5 7 9 10 11 12 13 -15 16 0
1 2 -3 -5 7 9 10 11 12 -13 14 0
1 2 -3 -5 7 9 10 11 12 -13 16 0
1 2 -3 -5 7 9 10 11 -12 13 0
1 2 -3 -5 7 9 10 11 -12 14 0
1 2 -3 -5 7 9 10 11 -12 16 0
1 2 -3 -5 7 9 10 -11 13 14 0
1 2 -3 -5 7 9 10 -11 13 15 16 0
1 2 -3 -5 7 9 10 -11 13 15 17 -18 0
1 2 -3 -5 7 9 10 -11 13 -15 16 0
1 2 -3 -5 7 9 10 -11 -13 14 0
1 2 -3 -5 7 9 10 -11 -13 16 0
1 2 -3 -5 7 9 -10 11 0
1 2 -3 -5 7 9 -10 13 14 0
1 2 -3 -5 7 9 -10 13 15 16 0
1 2 -3 -5 7 9 -10 13 15 17 -18 0
1 2 -3 -5 7 9 -10 13 -15 16 0
1 2 -3 -5 7 9 -10 -13 14 0
1 2 -3 -5 7 9 -10 -13 16 0
1 2 -3 -5 7 -9 10 12 0
1 2 -3 -5 7 -9 10 13 14 0
1 2 -3 -5 7 -9 10 13 15 16 0
1 2 -3 -5 7 -9 10 13 15 17 -18 0
1 2 -3 -5 7 -9 10 13 -15 16 0
1 2 -3 -5 7 -9 10 -13 14 0
1 2 -3 -5 7 -9 10 -13 16 0
1 2 -3 -5 7 -9 -10 13 14 0
1 2 -3 -5 7 -9 -10 13 15 16 0
1 2 -3 -5 7 -9 -10 13 15 17 -18 0
1 2 -3 -5 7 -9 -10 13 -15 16 0
1 2 -3 -5 7 -9 -10 -13 14 0
1 2 -3 -5 7 -9 -10 -13 16 0
1 2 -3 -5 7 -8 0
1 2 -3 -5 -7 9 13 14 0
1 2 -3 -5 -7 9 13 16 0
1 2 -3 -5 -7 9 13 17 -18 0
1 2 -3 -5 -7 9 13 -15 0
1 2 -3 -5 -7 9 -13 14 0
1 2 -3 -5 -7 9 -13 16 0
1 2 -3 -5 -7 9 -13 -15 0
1 2 -3 -5 -7 -9 10 12 0
1 2 -3 -5 -7 -9 10 13 14 0
1 2 -3 -5 -7 -9 10 13 16 0
1 2 -3 -5 -7 -9 10 13 17 -18 0
1 2 -3 -5 -7 -9 10 13 -15 0
1 2 -3 -5 -7 -9 10 -13 14 0
1 2 -3 -5 -7 -9 10 -13 16 0
1 2 -3 -5 -7 -9 10 -13 -15 0
1 2 -3 -5 -7 -9 -10 13 14 0
1 2 -3 -5 -7 -9 -10 13 16 0
1 2 -3 -5 -7 -9 -10 13 17 -18 0
1 2 -3 -5 -7 -9 -10 13 -15 0
1 2 -3 -5 -7 -9 -10 -13 14 0
1 2 -3 -5 -7 -9 -10 -13 16 0
1 2 -3 -5 -7 -9 -10 -13 -15 0
1 2 -3 -5 -7 -8 0
1 2 -3 -5 -6 0
1 2 -3 -4 0
1 -2 5 8 9 0
1 -2 5 8 12 0
1 -2 5 8 -18 0
1 -2 5 8 -17 0
1 -2 5 8 -16 0
1 -2 5 8 -15 0
1 -2 5 8 -14 0
1 -2 5 8 -13 0
1 -2 5 8 -11 0
1 -2 5 -8 9 0
1 -2 5 -8 -18 0
1 -2 5 -8 -17 0
1 -2 5 -8 -16 0
1 -2 5 -8 -15 0
1 -2 5 -8 -14 0
1 -2 5 -8 -13 0
1 -2 5 -8 -11 0
1 -2 5 -7 0
1 -2 5 -6 0
1 -2 -5 6 8 15 16 0
1 -2 -5 6 8 15 -18 0
1 -2 -5 6 8 15 -17 0
1 -2 -5 6 8 -15 16 18 0
1 -2 -5 6 8 -15 16 -17 0
1 -2 -5 6 8 -15 -16 -17 0
1 -2 -5 6 8 -14 0
1 -2 -5 6 8 -13 0
1 -2 -5 6 8 -12 0
1 -2 -5 6 8 -11 0
1 -2 -5 6 8 -10 0
1 -2 -5 6 8 -9 0
1 -2 -5 6 -8 15 0
1 -2 -5 6 -8 -17 0
1 -2 -5 6 -8 -16 0
1 -2 -5 6 -8 -14 0
1 -2 -5 6 -8 -13 0
1 -2 -5 6 -8 -12 0
1 -2 -5 6 -8 -11 0
1 -2 -5 6 -8 -10 0
1 -2 -5 6 -8 -9 0
1 -2 -5 6 -7 0
1 -2 -5 -6 8 15 -18 0
1 -2 -5 -6 8 15 -17 0
1 -2 -5 -6 8 -15 -17 0
1 -2 -5 -6 8 -14 0
1 -2 -5 -6 8 -13 0
1 -2 -5 -6 8 -12 0
1 -2 -5 -6 8 -11 0
1 -2 -5 -6 8 -10 0
1 -2 -5 -6 8 -9 0
1 -2 -5 -6 -8 15 0
1 -2 -5 -6 -8 -17 0
1 -2 -5 -6 -8 -16 0
1 -2 -5 -6 -8 -14 0
1 -2 -5 -6 -8 -13 0
1 -2 -5 -6 -8 -12 0
1 -2 -5 -6 -8 -11 0
1 -2 -5 -6 -8 -10 0
1 -2 -5 -6 -8 -9 0
1 -2 -5 -6 -7 0
1 -2 -4 0
1 -2 -3 0
-1 2 4 5 6 7 8 9 10 0
-1 2 4 5 6 7 8 9 11 12 13 14 15 16 17 0
-1 2 4 5 6 7 8 9 11 12 13 14 15 16 18 0
-1 2 4 5 6 7 8 9 11 12 13 14 15 -16 17 0
-1 2 4 5 6 7 8 9 11 12 13 14 -15 16 18 0
-1 2 4 5 6 7 8 9 11 12 13 -14 15 17 0
-1 2 4 5 6 7 8 9 11 12 13 -14 -15 16 17 0
-1 2 4 5 6 7 8 9 11 12 13 -14 -15 16 18 0
-1 2 4 5 6 7 8 9 11 12 13 -14 -15 -16 17 0
-1 2 4 5 6 7 8 9 11 12 -13 14 15 16 18 0
-1 2 4 5 6 7 8 9 11 12 -13 14 15 -16 17 0
-1 2 4 5 6 7 8 9 11 12 -13 14 15 -16 18 0
-1 2 4 5 6 7 8 9 11 12 -13 14 -15 18 0
-1 2 4 5 6 7 8 9 11 12 -13 -14 15 -16 17 0
-1 2 4 5 6 7 8 9 11 12 -13 -14 -15 16 18 0
-1 2 4 5 6 7 8 9 11 -12 13 0
-1 2 4 5 6 7 8 9 11 -12 14 15 16 18 0
-1 2 4 5 6 7 8 9 11 -12 14 15 -16 17 0
-1 2 4 5 6 7 8 9 11 -12 14 -15 16 18 0
-1 2 4 5 6 7 8 9 11 -12 -14 15 -16 17 0
-1 2 4 5 6 7 8 9 11 -12 -14 -15 16 18 0
-1 2 4 5 6 7 8 9 -11 12 13 14 15 16 17 0
-1 2 4 5 6 7 8 9 -11 12 13 14 15 16 18 0
-1 2 4 5 6 7 8 9 -11 12 13 14 15 -16 17 0
-1 2 4 5 6 7 8 9 -11 12 13 14 -15 16 18 0
-1 2 4 5 6 7 8 9 -11 12 13 -14 15 16 17 -18 0
-1 2 4 5 6 7 8 9 -11 12 13 -14 15 -16 17 0
-1 2 4 5 6 7 8 9 -11 12 13 -14 -15 16 18 0
-1 2 4 5 6 7 8 9 -11 12 -13 14 15 16 18 0
-1 2 4 5 6 7 8 9 -11 12 -13 14 15 -16 17 0
-1 2 4 5 6 7 8 9 -11 12 -13 14 15 -16 18 0
-1 2 4 5 6 7 8 9 -11 12 -13 14 -15 18 0
-1 2 4 5 6 7 8 9 -11 12 -13 -14 15 -16 17 0
-1 2 4 5 6 7 8 9 -11 12 -13 -14 -15 16 18 0
-1 2 4 5 6 7 8 9 -11 -12 13 14 15 16 17 0
-1 2 4 5 6 7 8 9 -11 -12 13 14 15 16 18 0
-1 2 4 5 6 7 8 9 -11 -12 13 14 15 -16 17 0
-1 2 4 5 6 7 8 9 -11 -12 13 14 -15 16 18 0
-1 2 4 5 6 7 8 9 -11 -12 13 -14 15 16 17 -18 0
-1 2 4 5 6 7 8 9 -11 -12 13 -14 15 -16 17 0
-1 2 4 5 6 7 8 9 -11 -12 13 -14 -15 16 18 0
-1 2 4 5 6 7 8 9 -11 -12 -13 14 15 16 18 0
-1 2 4 5 6 7 8 9 -11 -12 -13 14 15 -16 17 0
-1 2 4 5 6 7 8 9 -11 -12 -13 14 -15 16 18 0
-1 2 4 5 6 7 8 9 -11 -12 -13 -14 15 -16 17 0
-1 2 4 5 6 7 8 9 -11 -12 -13 -14 -15 16 18 0
-1 2 4 5 6 7 8 -9 10 0
-1 2 4 5 6 7 8 -9 11 12 13 14 15 16 17 0
-1 2 4 5 6 7 8 -9 11 12 13 14 15 16 18 0
-1 2 4 5 6 7 8 -9 11 12 13 14 15 -16 17 0
-1 2 4 5 6 7 8 -9 11 12 13 14 -15 16 18 0
-1 2 4 5 6 7 8 -9 11 12 13 -14 15 17 0
-1 2 4 5 6 7 8 -9 11 12 13 -14 -15 16 17 0
-1 2 4 5 6 7 8 -9 11 12 13 -14 -15 16 18 0
-1 2 4 5 6 7 8 -9 11 12 13 -14 -15 -16 17 0
-1 2 4 5 6 7 8 -9 11 12 -13 14 15 16 18 0
-1 2 4 5 6 7 8 -9 11 12 -13 14 15 -16 17 0
-1 2 4 5 6 7 8 -9 11 12 -13 14 15 -16 18 0
-1 2 4 5 6 7 8 -9 11 12 -13 14 -15 18 0
-1 2 4 5 6 7 8 -9 11 12 -13 -14 15 -16 17 0
-1 2 4 5 6 7 8 -9 11 12 -13 -14 -15 16 18 0
-1 2 4 5 6 7 8 -9 11 -12 13 14 15 16 17 -18 0
-1 2 4 5 6 7 8 -9 11 -12 13 14 15 16 -17 18 0
-1 2 4 5 6 7 8 -9 11 -12 13 14 15 -16 17 0
-1 2 4 5 6 7 8 -9 11 -12 13 14 -15 16 18 0
-1 2 4 5 6 7 8 -9 11 -12 13 -14 15 17 0
-1 2 4 5 6 7 8 -9 11 -12 13 -14 -15 16 17 0
-1 2 4 5 6 7 8 -9 11 -12 13 -14 -15 16 18 0
-1 2 4 5 6 7 8 -9 11 -12 13 -14 -15 -16 17 0
-1 2 4 5 6 7 8 -9 11 -12 -13 14 15 16 18 0
-1 2 4 5 6 7 8 -9 11 -12 -13 14 15 -16 17 0
-1 2 4 5 6 7 8 -9 11 -12 -13 14 -15 16 18 0
-1 2 4 5 6 7 8 -9 11 -12 -13 -14 15 -16 17 0
-1 2 4 5 6 7 8 -9 11 -12 -13 -14 -15 16 18 0
-1 2 4 5 6 7 8 -9 -11 12 13 14 15 16 17 0
-1 2 4 5 6 7 8 -9 -11 12 13 14 15 16 18 0
-1 2 4 5 6 7 8 -9 -11 12 13 14 15 -16 17 0
-1 2 4 5 6 7 8 -9 -11 12 13 14 -15 16 18 0
-1 2 4 5 6 7 8 -9 -11 12 13 -14 15 16 17 -18 0
-1 2 4 5 6 7 8 -9 -11 12 13 -14 15 -16 17 0
-1 2 4 5 6 7 8 -9 -11 12 13 -14 -15 16 18 0
-1 2 4 5 6 7 8 -9 -11 12 -13 14 15 16 18 0
-1 2 4 5 6 7 8 -9 -11 12 -13 14 15 -16 17 0
-1 2 4 5 6 7 8 -9 -11 12 -13 14 15 -16 18 0
-1 2 4 5 6 7 8 -9 -11 12 -13 14 -15 18 0
-1 2 4 5 6 7 8 -9 -11 12 -13 -14 15 -16 17 0
-1 2 4 5 6 7 8 -9 -11 12 -13 -14 -15 16 18 0
-1 2 4 5 6 7 8 -9 -11 -12 13 14 15 16 17 0
-1 2 4 5 6 7 8 -9 -11 -12 13 14 15 16 18 0
-1 2 4 5 6 7 8 -9 -11 -12 13 14 15 -16 17 0
-1 2 4 5 6 7 8 -9 -11 -12 13 14 -15 16 18 0
-1 2 4 5 6 7 8 -9 -11 -12 13 -14 15 16 17 -18 0
-1 2 4 5 6 7 8 -9 -11 -12 13 -14 15 -16 17 0
-1 2 4 5 6 7 8 -9 -11 -12 13 -14 -15 16 18 0
-1 2 4 5 6 7 8 -9 -11 -12 -13 14 15 16 18 0
-1 2 4 5 6 7 8 -9 -11 -12 -13 14 15 -16 17 0
-1 2 4 5 6 7 8 -9 -11 -12 -13 14 -15 16 18 0
-1 2 4 5 6 7 8 -9 -11 -12 -13 -14 15 -16 17 0
-1 2 4 5 6 7 8 -9 -11 -12 -13 -14 -15 16 18 0
-1 2 4 5 6 7 -8 9 10 0
-1 2 4 5 6 7 -8 9 11 12 13 14 15 0
-1 2 4 5 6 7 -8 9 11 12 13 14 18 0
-1 2 4 5 6 7 -8 9 11 12 13 14 -16 0
-1 2 4 5 6 7 -8 9 11 12 13 -14 15 0
-1 2 4 5 6 7 -8 9 11 12 13 -14 17 0
-1 2 4 5 6 7 -8 9 11 12 13 -14 -16 0
-1 2 4 5 6 7 -8 9 11 12 -13 14 15 0
-1 2 4 5 6 7 -8 9 11 12 -13 14 18 0
-1 2 4 5 6 7 -8 9 11 12 -13 14 -16 0
-1 2 4 5 6 7 -8 9 11 12 -13 -14 15 0
-1 2 4 5 6 7 -8 9 11 12 -13 -14 -16 0
-1 2 4 5 6 7 -8 9 11 -12 13 0
-1 2 4 5 6 7 -8 9 11 -12 14 15 0
-1 2 4 5 6 7 -8 9 11 -12 14 18 0
-1 2 4 5 6 7 -8 9 11 -12 14 -16 0
-1 2 4 5 6 7 -8 9 11 -12 -14 15 0
-1 2 4 5 6 7 -8 9 11 -12 -14 -16 0
-1 2 4 5 6 7 -8 9 -11 13 14 15 17 0
-1 2 4 5 6 7 -8 9 -11 13 14 15 18 0
-1 2 4 5 6 7 -8 9 -11 13 14 15 -16 0
-1 2 4 5 6 7 -8 9 -11 13 14 -15 18 0
-1 2 4 5 6 7 -8 9 -11 13 14 -15 -16 0
-1 2 4 5 6 7 -8 9 -11 13 -14 15 17 -18 0
-1 2 4 5 6 7 -8 9 -11 13 -14 15 -16 0
-1 2 4 5 6 7 -8 9 -11 13 -14 -15 -16 0
-1 2 4 5 6 7 -8 9 -11 -13 14 18 0
-1 2 4 5 6 7 -8 9 -11 -13 14 -16 0
-1 2 4 5 6 7 -8 9 -11 -13 -14 -16 0
-1 2 4 5 6 7 -8 -9 10 0
-1 2 4 5 6 7 -8 -9 11 13 14 15 17 -18 0
-1 2 4 5 6 7 -8 -9 11 13 14 15 -17 18 0
-1 2 4 5 6 7 -8 -9 11 13 14 15 -16 0
-1 2 4 5 6 7 -8 -9 11 13 14 -15 18 0
-1 2 4 5 6 7 -8 -9 11 13 14 -15 -16 0
-1 2 4 5 6 7 -8 -9 11 13 -14 17 0
-1 2 4 5 6 7 -8 -9 11 13 -14 -16 0
-1 2 4 5 6 7 -8 -9 11 -13 14 18 0
-1 2 4 5 6 7 -8 -9 11 -13 14 -16 0
-1 2 4 5 6 7 -8 -9 11 -13 -14 -16 0
-1 2 4 5 6 7 -8 -9 -11 13 14 15 17 0
-1 2 4 5 6 7 -8 -9 -11 13 14 15 18 0
-1 2 4 5 6 7 -8 -9 -11 13 14 15 -16 0
-1 2 4 5 6 7 -8 -9 -11 13 14 -15 18 0
-1 2 4 5 6 7 -8 -9 -11 13 14 -15 -16 0
-1 2 4 5 6 7 -8 -9 -11 13 -14 15 17 -18 0
-1 2 4 5 6 7 -8 -9 -11 13 -14 15 -16 0
-1 2 4 5 6 7 -8 -9 -11 13 -14 -15 -16 0
-1 2 4 5 6 7 -8 -9 -11 -13 14 18 0
-1 2 4 5 6 7 -8 -9 -11 -13 14 -16 0
-1 2 4 5 6 7 -8 -9 -11 -13 -14 -16 0
-1 2 4 5 6 -7 8 10 0
-1 2 4 5 6 -7 8 11 12 13 14 16 17 0
-1 2 4 5 6 -7 8 11 12 13 14 16 18 0
-1 2 4 5 6 -7 8 11 12 13 14 -16 17 -18 0
-1 2 4 5 6 -7 8 11 12 13 14 -15 0
-1 2 4 5 6 -7 8 11 12 13 -14 17 0
-1 2 4 5 6 -7 8 11 12 13 -14 -15 0
-1 2 4 5 6 -7 8 11 12 -13 14 18 0
-1 2 4 5 6 -7 8 11 12 -13 14 -15 0
-1 2 4 5 6 -7 8 11 12 -13 -14 -15 0
-1 2 4 5 6 -7 8 11 -12 13 14 16 17 0
-1 2 4 5 6 -7 8 11 -12 13 14 16 18 0
-1 2 4 5 6 -7 8 11 -12 13 14 -16 17 -18 0
-1 2 4 5 6 -7 8 11 -12 13 14 -15 0
-1 2 4 5 6 -7 8 11 -12 13 -14 17 0
-1 2 4 5 6 -7 8 11 -12 13 -14 -15 0
-1 2 4 5 6 -7 8 11 -12 -13 14 16 18 0
-1 2 4 5 6 -7 8 11 -12 -13 14 -15 0
-1 2 4 5 6 -7 8 11 -12 -13 -14 -15 0
-1 2 4 5 6 -7 8 -11 12 13 14 16 17 0
-1 2 4 5 6 -7 8 -11 12 13 14 16 18 0
-1 2 4 5 6 -7 8 -11 12 13 14 -16 17 -18 0
-1 2 4 5 6 -7 8 -11 12 13 14 -15 0
-1 2 4 5 6 -7 8 -11 12 13 -14 17 -18 0
-1 2 4 5 6 -7 8 -11 12 13 -14 -15 0
-1 2 4 5 6 -7 8 -11 12 -13 14 18 0
-1 2 4 5 6 -7 8 -11 12 -13 14 -15 0
-1 2 4 5 6 -7 8 -11 12 -13 -14 -15 0
-1 2 4 5 6 -7 8 -11 -12 13 14 16 17 0
-1 2 4 5 6 -7 8 -11 -12 13 14 16 18 0
-1 2 4 5 6 -7 8 -11 -12 13 14 -16 17 -18 0
-1 2 4 5 6 -7 8 -11 -12 13 14 -15 0
-1 2 4 5 6 -7 8 -11 -12 13 -14 17 -18 0
-1 2 4 5 6 -7 8 -11 -12 13 -14 -15 0
-1 2 4 5 6 -7 8 -11 -12 -13 14 16 18 0
-1 2 4 5 6 -7 8 -11 -12 -13 14 -15 0
-1 2 4 5 6 -7 8 -11 -12 -13 -14 -15 0
-1 2 4 5 6 -7 -8 10 0
-1 2 4 5 6 -7 -8 11 13 14 17 0
-1 2 4 5 6 -7 -8 11 13 14 18 0
-1 2 4 5 6 -7 -8 11 13 14 -16 0
-1 2 4 5 6 -7 -8 11 13 14 -15 0
-1 2 4 5 6 -7 -8 11 13 -14 17 0
-1 2 4 5 6 -7 -8 11 13 -14 -16 0
-1 2 4 5 6 -7 -8 11 13 -14 -15 0
-1 2 4 5 6 -7 -8 11 -13 14 18 0
-1 2 4 5 6 -7 -8 11 -13 14 -16 0
-1 2 4 5 6 -7 -8 11 -13 14 -15 0
-1 2 4 5 6 -7 -8 11 -13 -14 -16 0
-1 2 4 5 6 -7 -8 11 -13 -14 -15 0
-1 2 4 5 6 -7 -8 -11 13 14 17 0
-1 2 4 5 6 -7 -8 -11 13 14 18 0
-1 2 4 5 6 -7 -8 -11 13 14 -16 0
-1 2 4 5 6 -7 -8 -11 13 14 -15 0
-1 2 4 5 6 -7 -8 -11 13 -14 17 -18 0
-1 2 4 5 6 -7 -8 -11 13 -14 -16 0
-1 2 4 5 6 -7 -8 -11 13 -14 -15 0
-1 2 4 5 6 -7 -8 -11 -13 14 18 0
-1 2 4 5 6 -7 -8 -11 -13 14 -16 0
-1 2 4 5 6 -7 -8 -11 -13 14 -15 0
-1 2 4 5 6 -7 -8 -11 -13 -14 -16 0
-1 2 4 5 6 -7 -8 -11 -13 -14 -15 0
-1 2 4 5 -6 8 9 10 0
-1 2 4 5 -6 8 9 -18 0
-1 2 4 5 -6 8 9 -17 0
-1 2 4 5 -6 8 9 -16 0
-1 2 4 5 -6 8 9 -15 0
-1 2 4 5 -6 8 9 -14 0
-1 2 4 5 -6 8 9 -13 0
-1 2 4 5 -6 8 9 -12 0
-1 2 4 5 -6 8 9 -11 0
-1 2 4 5 -6 8 -9 10 12 0
-1 2 4 5 -6 8 -9 10 -18 0
-1 2 4 5 -6 8 -9 10 -17 0
-1 2 4 5 -6 8 -9 10 -16 0
-1 2 4 5 -6 8 -9 10 -15 0
-1 2 4 5 -6 8 -9 10 -14 0
-1 2 4 5 -6 8 -9 10 -13 0
-1 2 4 5 -6 8 -9 10 -11 0
-1 2 4 5 -6 8 -9 -10 -18 0
-1 2 4 5 -6 8 -9 -10 -17 0
-1 2 4 5 -6 8 -9 -10 -16 0
-1 2 4 5 -6 8 -9 -10 -15 0
-1 2 4 5 -6 8 -9 -10 -14 0
-1 2 4 5 -6 8 -9 -10 -13 0
-1 2 4 5 -6 8 -9 -10 -11 0
-1 2 4 5 -6 -8 9 0
-1 2 4 5 -6 -8 -18 0
-1 2 4 5 -6 -8 -17 0
-1 2 4 5 -6 -8 -16 0
-1 2 4 5 -6 -8 -15 0
-1 2 4 5 -6 -8 -14 0
-1 2 4 5 -6 -8 -13 0
-1 2 4 5 -6 -8 -11 0
-1 2 4 5 -6 -7 0
-1 2 4 -5 7 9 10 0
-1 2 4 -5 7 9 11 12 13 14 15 16 0
-1 2 4 -5 7 9 11 12 13 14 15 17 -18 0
-1 2 4 -5 7 9 11 12 13 14 -15 16 0
-1 2 4 -5 7 9 11 12 13 -14 16 0
-1 2 4 -5 7 9 11 12 13 -14 17 0
-1 2 4 -5 7 9 11 12 -13 14 16 0
-1 2 4 -5 7 9 11 12 -13 14 18 0
-1 2 4 -5 7 9 11 12 -13 -14 16 0
-1 2 4 -5 7 9 11 -12 13 0
-1 2 4 -5 7 9 11 -12 16 0
-1 2 4 -5 7 9 -11 12 13 15 16 0
-1 2 4 -5 7 9 -11 12 13 15 17 -18 0
-1 2 4 -5 7 9 -11 12 13 -15 16 0
-1 2 4 -5 7 9 -11 12 -13 14 16 0
-1 2 4 -5 7 9 -11 12 -13 14 18 0
-1 2 4 -5 7 9 -11 12 -13 -14 16 0
-1 2 4 -5 7 9 -11 -12 13 15 16 0
-1 2 4 -5 7 9 -11 -12 13 15 17 -18 0
-1 2 4 -5 7 9 -11 -12 13 -15 16 0
-1 2 4 -5 7 9 -11 -12 -13 16 0
-1 2 4 -5 7 -9 10 0
-1 2 4 -5 7 -9 11 12 13 14 15 16 0
-1 2 4 -5 7 -9 11 12 13 14 15 17 -18 0
-1 2 4 -5 7 -9 11 12 13 14 -15 16 0
-1 2 4 -5 7 -9 11 12 13 -14 16 0
-1 2 4 -5 7 -9 11 12 13 -14 17 0
-1 2 4 -5 7 -9 11 12 -13 14 16 0
-1 2 4 -5 7 -9 11 12 -13 14 18 0
-1 2 4 -5 7 -9 11 12 -13 -14 16 0
-1 2 4 -5 7 -9 11 -12 13 14 15 16 0
-1 2 4 -5 7 -9 11 -12 13 14 15 17 -18 0
-1 2 4 -5 7 -9 11 -12 13 14 -15 16 0
-1 2 4 -5 7 -9 11 -12 13 -14 16 0
-1 2 4 -5 7 -9 11 -12 13 -14 17 0
-1 2 4 -5 7 -9 11 -12 -13 16 0
-1 2 4 -5 7 -9 -11 12 13 15 16 0
-1 2 4 -5 7 -9 -11 12 13 15 17 -18 0
-1 2 4 -5 7 -9 -11 12 13 -15 16 0
-1 2 4 -5 7 -9 -11 12 -13 14 16 0
-1 2 4 -5 7 -9 -11 12 -13 14 18 0
-1 2 4 -5 7 -9 -11 12 -13 -14 16 0
-1 2 4 -5 7 -9 -11 -12 13 15 16 0
-1 2 4 -5 7 -9 -11 -12 13 15 17 -18 0
-1 2 4 -5 7 -9 -11 -12 13 -15 16 0
-1 2 4 -5 7 -9 -11 -12 -13 16 0
-1 2 4 -5 7 -8 0
-1 2 4 -5 -7 10 0
-1 2 4 -5 -7 11 12 13 14 16 0
-1 2 4 -5 -7 11 12 13 14 17 -18 0
-1 2 4 -5 -7 11 12 13 14 -15 0
-1 2 4 -5 -7 11 12 13 -14 16 0
-1 2 4 -5 -7 11 12 13 -14 17 0
-1 2 4 -5 -7 11 12 13 -14 -15 0
-1 2 4 -5 -7 11 12 -13 14 16 0
-1 2 4 -5 -7 11 12 -13 14 18 0
-1 2 4 -5 -7 11 12 -13 14 -15 0
-1 2 4 -5 -7 11 12 -13 -14 16 0
-1 2 4 -5 -7 11 12 -13 -14 -15 0
-1 2 4 -5 -7 11 -12 13 14 16 0
-1 2 4 -5 -7 11 -12 13 14 17 -18 0
-1 2 4 -5 -7 11 -12 13 14 -15 0
-1 2 4 -5 -7 11 -12 13 -14 16 0
-1 2 4 -5 -7 11 -12 13 -14 17 0
-1 2 4 -5 -7 11 -12 13 -14 -15 0
-1 2 4 -5 -7 11 -12 -13 16 0
-1 2 4 -5 -7 11 -12 -13 -15 0
-1 2 4 -5 -7 -11 12 13 16 0
-1 2 4 -5 -7 -11 12 13 17 -18 0
-1 2 4 -5 -7 -11 12 13 -15 0
-1 2 4 -5 -7 -11 12 -13 14 16 0
-1 2 4 -5 -7 -11 12 -13 14 18 0
-1 2 4 -5 -7 -11 12 -13 14 -15 0
-1 2 4 -5 -7 -11 12 -13 -14 16 0
-1 2 4 -5 -7 -11 12 -13 -14 -15 0
-1 2 4 -5 -7 -11 -12 13 16 0
-1 2 4 -5 -7 -11 -12 13 17 -18 0
-1 2 4 -5 -7 -11 -12 13 -15 0
-1 2 4 -5 -7 -11 -12 -13 16 0
-1 2 4 -5 -7 -11 -12 -13 -15 0
-1 2 4 -5 -7 -8 0
-1 2 4 -5 -6 0
-1 2 -4 8 9 -18 0
-1 2 -4 8 9 -17 0
-1 2 -4 8 9 -16 0
-1 2 -4 8 9 -15 0
-1 2 -4 8 9 -14 0
-1 2 -4 8 9 -13 0
-1 2 -4 8 9 -12 0
-1 2 -4 8 9 -11 0
-1 2 -4 8 -9 10 12 0
-1 2 -4 8 -9 10 -18 0
-1 2 -4 8 -9 10 -17 0
-1 2 -4 8 -9 10 -16 0
-1 2 -4 8 -9 10 -15 0
-1 2 -4 8 -9 10 -14 0
-1 2 -4 8 -9 10 -13 0
-1 2 -4 8 -9 10 -11 0
-1 2 -4 8 -9 -10 -18 0
-1 2 -4 8 -9 -10 -17 0
-1 2 -4 8 -9 -10 -16 0
-1 2 -4 8 -9 -10 -15 0
-1 2 -4 8 -9 -10 -14 0
-1 2 -4 8 -9 -10 -13 0
-1 2 -4 8 -9 -10 -11 0
-1 2 -4 -8 9 0
-1 2 -4 -8 -18 0
-1 2 -4 -8 -17 0
-1 2 -4 -8 -16 0
-1 2 -4 -8 -15 0
-1 2 -4 -8 -14 0
-1 2 -4 -8 -13 0
-1 2 -4 -8 -11 0
-1 2 -4 -7 0
-1 2 -4 -5 0
-1 2 -3 0
-1 -2 6 8 9 0
-1 -2 6 8 12 0
-1 -2 6 8 -18 0
-1 -2 6 8 -17 0
-1 -2 6 8 -16 0
-1 -2 6 8 -15 0
-1 -2 6 8 -14 0
-1 -2 6 8 -13 0
-1 -2 6 8 -11 0
-1 -2 6 -8 9 0
-1 -2 6 -8 -18 0
-1 -2 6 -8 -17 0
-1 -2 6 -8 -16 0
-1 -2 6 -8 -15 0
-1 -2 6 -8 -14 0
-1 -2 6 -8 -13 0
-1 -2 6 -8 -11 0
-1 -2 6 -7 0
-1 -2 -6 8 9 -18 0
-1 -2 -6 8 9 -17 0
-1 -2 -6 8 9 -16 0
-1 -2 -6 8 9 -15 0
-1 -2 -6 8 9 -14 0
-1 -2 -6 8 9 -13 0
-1 -2 -6 8 9 -12 0
-1 -2 -6 8 9 -11 0
-1 -2 -6 8 -9 -18 0
-1 -2 -6 8 -9 -17 0
-1 -2 -6 8 -9 -16 0
-1 -2 -6 8 -9 -15 0
-1 -2 -6 8 -9 -14 0
-1 -2 -6 8 -9 -13 0
-1 -2 -6 8 -9 -11 0
-1 -2 -6 -8 9 0
-1 -2 -6 -8 -18 0
-1 -2 -6 -8 -17 0
-1 -2 -6 -8 -16 0
-1 -2 -6 -8 -15 0
-1 -2 -6 -8 -14 0
-1 -2 -6 -8 -13 0
-1 -2 -6 -8 -11 0
-1 -2 -6 -7 0
-1 -2 -5 0
-1 -2 -4 0
-1 -2 -3 0
c # End of Cnf From dddmp-2.0
